certificates/rado_a13_c198_N36.cnf
c Rad2 upper bound instance: x1 + 13*x2 - x3 = 198, interval [1,36]
p cnf 36 198
1 11 16 0
-1 -11 -16 0
1 17 24 0
-1 -17 -24 0
2 12 16 0
-2 -12 -16 0
2 17 25 0
-2 -17 -25 0
3 13 16 0
-3 -13 -16 0
3 17 26 0
-3 -17 -26 0
1 4 15 0
-1 -4 -15 0
4 14 16 0
-4 -14 -16 0
4 17 27 0
-4 -17 -27 0
2 5 15 0
-2 -5 -15 0
5 15 16 0
-5 -15 -16 0
5 17 28 0
-5 -17 -28 0
3 6 15 0
-3 -6 -15 0
6 16 0
-6 -16 0
6 17 29 0
-6 -17 -29 0
4 7 15 0
-4 -7 -15 0
7 16 17 0
-7 -16 -17 0
7 17 30 0
-7 -17 -30 0
5 8 15 0
-5 -8 -15 0
8 16 18 0
-8 -16 -18 0
8 17 31 0
-8 -17 -31 0
6 9 15 0
-6 -9 -15 0
9 16 19 0
-9 -16 -19 0
9 17 32 0
-9 -17 -32 0
7 10 15 0
-7 -10 -15 0
10 16 20 0
-10 -16 -20 0
10 17 33 0
-10 -17 -33 0
8 11 15 0
-8 -11 -15 0
11 16 21 0
-11 -16 -21 0
11 17 34 0
-11 -17 -34 0
9 12 15 0
-9 -12 -15 0
12 16 22 0
-12 -16 -22 0
12 17 35 0
-12 -17 -35 0
10 13 15 0
-10 -13 -15 0
13 16 23 0
-13 -16 -23 0
13 17 36 0
-13 -17 -36 0
11 14 15 0
-11 -14 -15 0
14 16 24 0
-14 -16 -24 0
12 15 0
-12 -15 0
15 16 25 0
-15 -16 -25 0
13 15 16 0
-13 -15 -16 0
16 26 0
-16 -26 0
1 14 17 0
-1 -14 -17 0
14 15 17 0
-14 -15 -17 0
16 17 27 0
-16 -17 -27 0
2 14 18 0
-2 -14 -18 0
15 18 0
-15 -18 0
16 18 28 0
-16 -18 -28 0
3 14 19 0
-3 -14 -19 0
15 16 19 0
-15 -16 -19 0
16 19 29 0
-16 -19 -29 0
4 14 20 0
-4 -14 -20 0
15 17 20 0
-15 -17 -20 0
16 20 30 0
-16 -20 -30 0
5 14 21 0
-5 -14 -21 0
15 18 21 0
-15 -18 -21 0
16 21 31 0
-16 -21 -31 0
6 14 22 0
-6 -14 -22 0
15 19 22 0
-15 -19 -22 0
16 22 32 0
-16 -22 -32 0
7 14 23 0
-7 -14 -23 0
15 20 23 0
-15 -20 -23 0
16 23 33 0
-16 -23 -33 0
8 14 24 0
-8 -14 -24 0
15 21 24 0
-15 -21 -24 0
16 24 34 0
-16 -24 -34 0
9 14 25 0
-9 -14 -25 0
15 22 25 0
-15 -22 -25 0
16 25 35 0
-16 -25 -35 0
10 14 26 0
-10 -14 -26 0
15 23 26 0
-15 -23 -26 0
16 26 36 0
-16 -26 -36 0
11 14 27 0
-11 -14 -27 0
15 24 27 0
-15 -24 -27 0
12 14 28 0
-12 -14 -28 0
15 25 28 0
-15 -25 -28 0
13 14 29 0
-13 -14 -29 0
15 26 29 0
-15 -26 -29 0
1 13 30 0
-1 -13 -30 0
14 30 0
-14 -30 0
15 27 30 0
-15 -27 -30 0
2 13 31 0
-2 -13 -31 0
14 15 31 0
-14 -15 -31 0
15 28 31 0
-15 -28 -31 0
3 13 32 0
-3 -13 -32 0
14 16 32 0
-14 -16 -32 0
15 29 32 0
-15 -29 -32 0
4 13 33 0
-4 -13 -33 0
14 17 33 0
-14 -17 -33 0
15 30 33 0
-15 -30 -33 0
5 13 34 0
-5 -13 -34 0
14 18 34 0
-14 -18 -34 0
15 31 34 0
-15 -31 -34 0
6 13 35 0
-6 -13 -35 0
14 19 35 0
-14 -19 -35 0
15 32 35 0
-15 -32 -35 0
7 13 36 0
-7 -13 -36 0
14 20 36 0
-14 -20 -36 0
15 33 36 0
-15 -33 -36 0
