certificates/rado_a13_c198_N36.drat
15 -34 -35 0
17 33 -15 0
-34 -35 -36 0
-17 34 -35 0
17 33 0
d 14 17 33 0
17 -36 0
-35 -36 0
d -34 -35 -36 0
-17 -36 0
d -13 -17 -36 0
-36 0
13 -17 0
16 -17 35 0
-17 35 0
d 16 -17 35 0
17 35 0
d 17 12 35 0
35 0
-13 0
17 0
7 0
0
